12      4       
9       9       9       9       
0       0       0       0       0       3       2       3       4       
4       0       9       0       0       1       5       
9       0       3       0       0       1       10      
1       0       6       0       0       1       6       
4       9       0       0       0       1       9       
5       4       0       0       0       1       7       
1       0       0       1       0       2       8       11      
7       0       0       0       9       1       12      
8       3       0       0       0       1       12      
3       0       0       0       6       1       12      
3       0       0       0       2       1       12      
0       0       0       0       0       0       
